0	8.1
1	29
2	26
3	6.1
4	3.1
5	8.1
6	7.1
7	1.1
8	14
9	27
10	11
11	25
12	14
13	7.1
14	9.1
15	20
16	15
17	7.1
18	23
19	17
20	23
21	9.1
22	13
23	2.1
24	6.1
25	15
26	19
27	15
28	28
29	13
30	27
31	16
32	21
